Version identifier: 22.1.0.0 | 2022-03-09 | 1a383f8ce
CPXPARAM_Threads                                 1
CPXPARAM_MIP_Strategy_VariableSelect             3
CPXPARAM_TimeLimit                               590.63601381800004
1 of 1 MIP starts provided solutions.
MIP start 'm1' defined initial solution with objective 392.0000.
Tried aggregator 1 time.
MIP Presolve eliminated 13 rows and 0 columns.
MIP Presolve modified 46 coefficients.
Reduced MIP has 2413 rows, 10400 columns, and 189090 nonzeros.
Reduced MIP has 10400 binaries, 0 generals, 0 SOSs, and 0 indicators.
Presolve time = 0.20 sec. (310.75 ticks)
Probing time = 0.03 sec. (27.23 ticks)
Tried aggregator 1 time.
Detecting symmetries...
MIP Presolve modified 13 coefficients.
Reduced MIP has 2413 rows, 10400 columns, and 189320 nonzeros.
Reduced MIP has 10400 binaries, 0 generals, 0 SOSs, and 0 indicators.
Presolve time = 0.19 sec. (294.42 ticks)
Probing time = 0.03 sec. (27.26 ticks)
Clique table members: 1597.
MIP emphasis: balance optimality and feasibility.
MIP search method: dynamic search.
Parallel mode: none, using 1 thread.
Root relaxation solution time = 1.93 sec. (2392.46 ticks)

        Nodes                                         Cuts/
   Node  Left     Objective  IInf  Best Integer    Best Bound    ItCnt     Gap

*     0+    0                          392.0000    80200.0000              --- 
      0     0      400.0000  1516      392.0000      400.0000     5817    2.04%
      0     0      400.0000   162      392.0000    Cliques: 1     6002    2.04%
      0     0      400.0000   218      392.0000      Cuts: 60     8562    2.04%
      0     0      400.0000   166      392.0000    Cliques: 3     9358    2.04%
      0     0      400.0000   281      392.0000      Cuts: 27    11589    2.04%
Detecting symmetries...
      0     2      400.0000   156      392.0000      400.0000    11589    2.04%
Elapsed time = 72.83 sec. (76298.61 ticks, tree = 0.01 MB, solutions = 1)
      1     3      400.0000   168      392.0000      400.0000    12908    2.04%
      2     4      400.0000   214      392.0000      400.0000    17768    2.04%
      3     5      400.0000   204      392.0000      400.0000    21798    2.04%
      4     6      400.0000   182      392.0000      400.0000    22985    2.04%
      5     7      400.0000   174      392.0000      400.0000    24976    2.04%
      6     8      400.0000   734      392.0000      400.0000    33703    2.04%
      7     9      400.0000   179      392.0000      400.0000    35809    2.04%
      8    10      400.0000   268      392.0000      400.0000    45883    2.04%
      9    11      400.0000   290      392.0000      400.0000    55050    2.04%
     12    14      400.0000   262      392.0000      400.0000    56844    2.04%
Elapsed time = 91.13 sec. (95509.54 ticks, tree = 0.06 MB, solutions = 1)
     13    15      400.0000   229      392.0000      400.0000    65131    2.04%
     15    17      400.0000   230      392.0000      400.0000    67457    2.04%
     16    18      400.0000   315      392.0000      400.0000    75481    2.04%
     18    20      400.0000   204      392.0000      400.0000    76257    2.04%
     19    21      400.0000   233      392.0000      400.0000    78967    2.04%
     21    23      400.0000   218      392.0000      400.0000    79473    2.04%
     23    25      400.0000   230      392.0000      400.0000    86034    2.04%
     25    27      400.0000   242      392.0000      400.0000    89121    2.04%
     27    29      400.0000   308      392.0000      400.0000    92791    2.04%
     29    31      400.0000   236      392.0000      400.0000    95299    2.04%
Elapsed time = 109.21 sec. (113728.40 ticks, tree = 0.40 MB, solutions = 1)
     30    32      400.0000   284      392.0000      400.0000    96244    2.04%
     32    34      400.0000   380      392.0000      400.0000    99087    2.04%
     34    36      400.0000   321      392.0000      400.0000   104366    2.04%
     36    38      400.0000   215      392.0000      400.0000   108041    2.04%
     37    39      400.0000   456      392.0000      400.0000   119260    2.04%
     39    41      400.0000   491      392.0000      400.0000   121462    2.04%
     40    42      400.0000   207      392.0000      400.0000   121728    2.04%
     42    44      400.0000   160      392.0000      400.0000   126385    2.04%
     43    45      400.0000   449      392.0000      400.0000   131734    2.04%
     45    47      400.0000   494      392.0000      400.0000   136249    2.04%
Elapsed time = 140.87 sec. (146113.11 ticks, tree = 0.67 MB, solutions = 1)
     46    48      400.0000   191      392.0000      400.0000   141202    2.04%
     47    49      400.0000   301      392.0000      400.0000   151224    2.04%
     48    50      400.0000   180      392.0000      400.0000   152803    2.04%
     49    51      400.0000   428      392.0000      400.0000   155400    2.04%
     51    53      400.0000   176      392.0000      400.0000   158531    2.04%
     52    54      400.0000   361      392.0000      400.0000   161564    2.04%
     54    56      400.0000   157      392.0000      400.0000   162725    2.04%
     55    57      400.0000   153      392.0000      400.0000   167280    2.04%
     56    58      400.0000   494      392.0000      400.0000   171336    2.04%
     58    60      400.0000   127      392.0000      400.0000   172479    2.04%
Elapsed time = 159.27 sec. (164794.37 ticks, tree = 0.95 MB, solutions = 1)
     60    62      400.0000   293      392.0000      400.0000   175577    2.04%
     61    63      400.0000   381      392.0000      400.0000   181661    2.04%
     63    65      400.0000   373      392.0000      400.0000   187055    2.04%
     64    66      400.0000   434      392.0000      400.0000   191674    2.04%
     66    68      400.0000   343      392.0000      400.0000   193131    2.04%
     67    69      400.0000   451      392.0000      400.0000   197077    2.04%
     69    71      400.0000   312      392.0000      400.0000   201865    2.04%
     70    72      400.0000   374      392.0000      400.0000   204755    2.04%
     72    74      400.0000   343      392.0000      400.0000   207409    2.04%
     74    76      400.0000   370      392.0000      400.0000   209887    2.04%
Elapsed time = 181.67 sec. (187842.70 ticks, tree = 1.28 MB, solutions = 1)
     75    77      400.0000   344      392.0000      400.0000   212530    2.04%
     77    79      400.0000   393      392.0000      400.0000   217450    2.04%
     79    81      400.0000   366      392.0000      400.0000   218178    2.04%
     81    83      400.0000   352      392.0000      400.0000   221869    2.04%
     83    85      400.0000   299      392.0000      400.0000   224116    2.04%
     84    86      400.0000   462      392.0000      400.0000   225576    2.04%
     86    88      400.0000   398      392.0000      400.0000   228998    2.04%
     88    90      400.0000   330      392.0000      400.0000   233109    2.04%
     90    92      400.0000   520      392.0000      400.0000   235986    2.04%
     93    95      400.0000   337      392.0000      400.0000   238703    2.04%
Elapsed time = 199.57 sec. (205691.29 ticks, tree = 1.65 MB, solutions = 1)
     95    97      400.0000   425      392.0000      400.0000   240238    2.04%
     97    99      400.0000   347      392.0000      400.0000   242436    2.04%
     99   101      400.0000   515      392.0000      400.0000   244609    2.04%
    101   103      400.0000   352      392.0000      400.0000   246848    2.04%
    103   105      400.0000   510      392.0000      400.0000   249589    2.04%
    105   107      400.0000   577      392.0000      400.0000   252567    2.04%
    107   109      400.0000   438      392.0000      400.0000   254441    2.04%
    108   110      400.0000   455      392.0000      400.0000   256970    2.04%
    110   112      400.0000   424      392.0000      400.0000   259348    2.04%
    111   113      400.0000   433      392.0000      400.0000   261991    2.04%
Elapsed time = 214.73 sec. (220720.18 ticks, tree = 2.07 MB, solutions = 1)
    113   115      400.0000   523      392.0000      400.0000   264908    2.04%
    115   117      400.0000   449      392.0000      400.0000   267676    2.04%
    117   119      400.0000   484      392.0000      400.0000   269761    2.04%
    119   121      400.0000   413      392.0000      400.0000   272984    2.04%
    120   122      400.0000   395      392.0000      400.0000   274852    2.04%
    122   124      400.0000   473      392.0000      400.0000   277011    2.04%
    124   126      400.0000   495      392.0000      400.0000   281038    2.04%
    125   127      400.0000   505      392.0000      400.0000   283448    2.04%
    127   129      400.0000   434      392.0000      400.0000   288885    2.04%
    129   131      400.0000   424      392.0000      400.0000   290223    2.04%
Elapsed time = 232.46 sec. (238247.20 ticks, tree = 2.44 MB, solutions = 1)
    131   133      400.0000   372      392.0000      400.0000   292927    2.04%
    132   134      400.0000   454      392.0000      400.0000   296214    2.04%
    134   135      398.9762   446      392.0000      400.0000   303235    2.04%
    137   138      400.0000   446      392.0000      400.0000   304471    2.04%
    139   139      398.9194   632      392.0000      400.0000   318632    2.04%
    141   141      400.0000   415      392.0000      400.0000   320603    2.04%
    142   142      400.0000   439      392.0000      400.0000   323201    2.04%
    144   144      400.0000   398      392.0000      400.0000   325926    2.04%
    145   145      400.0000   419      392.0000      400.0000   328006    2.04%
    148   147      398.8548   565      392.0000      400.0000   335830    2.04%
Elapsed time = 252.50 sec. (257802.56 ticks, tree = 2.83 MB, solutions = 1)
    149   148      400.0000   415      392.0000      400.0000   338668    2.04%
    150   149      400.0000   365      392.0000      400.0000   345424    2.04%
    152   151      400.0000   262      392.0000      400.0000   348307    2.04%
    153   152      400.0000   355      392.0000      400.0000   351740    2.04%
    154   152      398.8684   424      392.0000      400.0000   357697    2.04%
    155   152      398.9063   465      392.0000      400.0000   361110    2.04%
    157   154      400.0000   325      392.0000      400.0000   362454    2.04%
    159   156      400.0000   329      392.0000      400.0000   364639    2.04%
    160   156      398.9286   414      392.0000      400.0000   369135    2.04%
    165   160      400.0000   343      392.0000      400.0000   377213    2.04%
Elapsed time = 272.61 sec. (277330.86 ticks, tree = 3.07 MB, solutions = 1)
    169   164      400.0000   406      392.0000      400.0000   386775    2.04%
    174   168      400.0000   312      392.0000      400.0000   397391    2.04%
    180   172      398.9375   436      392.0000      400.0000   407528    2.04%
    183   173      399.0000   524      392.0000      400.0000   419682    2.04%
    188   177      400.0000   275      392.0000      400.0000   428627    2.04%
    192   179      398.9211   393      392.0000      400.0000   441528    2.04%
    197   182      399.0000   369      392.0000      400.0000   454322    2.04%
    200   184      400.0000   251      392.0000      400.0000   458269    2.04%
    205   186      398.9474   391      392.0000      400.0000   471601    2.04%
    210   189      399.0000   234      392.0000      400.0000   482361    2.04%
Elapsed time = 319.52 sec. (321984.99 ticks, tree = 3.53 MB, solutions = 1)
    216   193      398.8684   372      392.0000      400.0000   494636    2.04%
    221   196      400.0000   264      392.0000      400.0000   503122    2.04%
    226   200      400.0000   235      392.0000      400.0000   512327    2.04%
    229   201      400.0000   189      392.0000      400.0000   524626    2.04%
    233   203      400.0000   226      392.0000      400.0000   535281    2.04%
    239   206      400.0000   237      392.0000      400.0000   544216    2.04%
    245   210      400.0000   234      392.0000      400.0000   552949    2.04%
    250   212      398.9688   387      392.0000      400.0000   564552    2.04%
    256   216      399.0313   417      392.0000      400.0000   574753    2.04%
    260   218      399.0000   160      392.0000      400.0000   582851    2.04%
Elapsed time = 366.49 sec. (366431.17 ticks, tree = 4.18 MB, solutions = 1)
    266   222      399.0313   386      392.0000      400.0000   592343    2.04%
    272   226      398.8684   353      392.0000      400.0000   602651    2.04%
    277   229      398.8750   384      392.0000      400.0000   612600    2.04%
    282   232      398.9091   386      392.0000      400.0000   623052    2.04%
    287   235      399.0000   358      392.0000      400.0000   634528    2.04%
    292   238      400.0000   178      392.0000      400.0000   645028    2.04%
    299   243      399.0556   382      392.0000      400.0000   656370    2.04%
    305   247      400.0000   203      392.0000      400.0000   665697    2.04%
    310   249      398.9000   316      392.0000      400.0000   679319    2.04%
    316   254      400.0000   189      392.0000      400.0000   688294    2.04%
Elapsed time = 410.96 sec. (408333.41 ticks, tree = 5.01 MB, solutions = 1)
    323   259      399.0000   420      392.0000      400.0000   699684    2.04%
    329   263      398.9545   378      392.0000      400.0000   708788    2.04%
    336   268      398.9444   365      392.0000      400.0000   717611    2.04%
    342   271      399.0000   379      392.0000      400.0000   727523    2.04%
    349   275      398.9545   326      392.0000      400.0000   738228    2.04%
    356   280      399.0000   297      392.0000      400.0000   749463    2.04%
    361   282      399.0556   370      392.0000      400.0000   759143    2.04%
    369   286      398.7500   314      392.0000      400.0000   770600    2.04%
    376   290      400.0000   277      392.0000      400.0000   780562    2.04%
    382   294      399.5500   308      392.0000      400.0000   792145    2.04%
Elapsed time = 456.37 sec. (450723.66 ticks, tree = 5.91 MB, solutions = 1)
    389   298      398.0000   265      392.0000      400.0000   803053    2.04%
    394   300      398.8636   307      392.0000      400.0000   814837    2.04%
    399   303      398.7667   326      392.0000      400.0000   825678    2.04%
    405   306      399.0000   417      392.0000      400.0000   838049    2.04%
    411   309      398.8889   284      392.0000      400.0000   847227    2.04%
    418   313      399.0000   340      392.0000      400.0000   859411    2.04%
    425   318      400.0000   226      392.0000      400.0000   869461    2.04%
    430   320      398.7273   258      392.0000      400.0000   882272    2.04%
    437   324      400.0000   212      392.0000      400.0000   892581    2.04%
    441   328      400.0000   210      392.0000      400.0000   897622    2.04%
Elapsed time = 501.91 sec. (492956.70 ticks, tree = 6.69 MB, solutions = 1)
    448   333      400.0000   216      392.0000      400.0000   907878    2.04%
    453   336      400.0000   198      392.0000      400.0000   920056    2.04%
    459   337      398.0000   273      392.0000      400.0000   930583    2.04%
    466   340    infeasible            392.0000      400.0000   943863    2.04%
    477   351      398.0000   177      392.0000      400.0000   950665    2.04%
    486   360      398.0000   179      392.0000      400.0000   960173    2.04%
    494   360    infeasible            392.0000      400.0000   976054    2.04%
Starting limited solution polishing.
    501   363      398.0000   188      392.0000      400.0000   990380    2.04%
    511   369      398.0000   243      392.0000      400.0000  1005367    2.04%
    522   371      398.0000   169      392.0000      400.0000  1019634    2.04%
Elapsed time = 546.72 sec. (533897.06 ticks, tree = 7.70 MB, solutions = 1)
    531   373      398.0000   203      392.0000      400.0000  1033394    2.04%
    538   374      398.0000   156      392.0000      400.0000  1048951    2.04%
    547   379      398.0000   152      392.0000      400.0000  1061469    2.04%
    554   380    infeasible            392.0000      400.0000  1078004    2.04%
    562   382    infeasible            392.0000      400.0000  1093097    2.04%
    574   390      398.0000   159      392.0000      400.0000  1103413    2.04%
    586   396      398.0000   148      392.0000      400.0000  1117562    2.04%
    595   398    infeasible            392.0000      400.0000  1133721    2.04%
    602   401      398.0000   241      392.0000      400.0000  1149172    2.04%

Clique cuts applied:  8
Zero-half cuts applied:  10
Gomory fractional cuts applied:  2

Root node processing (before b&c):
  Real time             =   72.66 sec. (76147.35 ticks)
Sequential b&c:
  Real time             =  517.98 sec. (496355.78 ticks)
                          ------------
Total (root+branch&cut) =  590.64 sec. (572503.13 ticks)
Primal:	392
Dual:	400
Status:	Feasible
Time:	590.63
Sequence:
	21
	9
	0
	21
	5
	16
	5
	21
	2
	21
	5
	12
	11
	20
	0
	23
	7
	14
	5
	23
	0
	21
	7
	16
	5
	20
	2
	21
	7
	16
	5
	5
	18
	5
	15
	9
	5
	12
	9
	21
	1
	23
	6
	12
	7
	16
	5
	5
	18
	8
	12
	9
	20
	1
	23
	5
	14
	9
	21
	0
	23
	5
	14
	9
	12
	7
	23
	0
	21
	5
	18
	5
	5
	16
	7
	7
	16
	5
	5
	12
	11
	14
	5
	10
	12
	5
	23
	1
	21
	6
	16
	5
	21
	3
	12
	5
	23
	1
	21
	9
	12
	5
	23
	1
	21
	10
	12
	5
	16
	7
	14
	9
	13
	5
	18
	7
	12
	9
	13
	7
	16
	5
	20
	3
	21
	5
	16
	6
	20
	3
	21
	5
	12
	9
	21
	0
	21
	9
	12
	7
	23
	1
	20
	9
	14
	6
	16
	7
	20
	3
	20
	5
	16
	1
	20
	7
	16
	5
	7
	16
	5
	14
	6
	23
	1
	20
	5
	18
	6
	20
	3
	20
	7
	16
	5
	21
	0
	23
	7
	12
	5
	9
	15
	5
	18
	5
	12
	11
	20
	0
	18
	5
	20
	1
	20
	10
	14
	5
	16
	7
	20
	4
	20
	5
	18
	5
	7
	16
	5
	13
	11
	20
	1
	20
	9
	14
	5
	16
	5
	21
	3
	20
	5
	13
	11
	12
	7
	23
	0
	21
	9
	14
	5
	23
	1
	20
	5
	17
	7
	20
	3
	20
	5
	3
	20
	7
	13
	9
	20
	1
	23
	7
	13
	9
	20
	1
	23
	8
	12
	9
	20
	1
	23
	7
	12
	9
	6
	12
	11
	20
	1
	23
	6
	1
	20
	9
	14
	6
	23
	1
	20
	9
	12
	6
	23
	1
	21
	9
	12
	5
	21
	1
	20
	9
	12
	7
	21
	2
	20
	5
	18
	7
	20
	0
	20
	9
	1
	20
	8
	12
	9
	20
	1
	23
	5
	12
	11
	20
	1
	23
	6
	12
	9
	21
	1
	20
	9
	13
	7
	11
	12
	5
	16
	7
	13
	9
	7
	12
	11
	5
	12
	11
	20
	0
	21
	5
	18
	5
	20
	2
	21
	5
	12
	7
	23
	1
	20
	9
	12
	7
	11
	13
	5
	23
	1
	20
	7
	16
	6
	14
	9
	20
	1
	23
	7
	13
	5
	12
	11
	21
	0
	20
	9
	12
	7
	12
	11
	13
	5
	12
	11
	21
